CMD:
./solvers/bin/cadical --plain --no-reduce -t 1600 ./data/cnfs//arbitrated_top_n4_w8_d64_e0/arbitrated_top_n4_w8_d64_e0.27.cnf

c --- [ banner ] -------------------------------------------------------------
c 
c CaDiCaL SAT Solver
c Copyright (c) 2016-2024
c A. Biere, M. Fleury, N. Froleyks, K. Fazekas, F. Pollitt, T. Faller
c JKU Linz, University of Freiburg, TU Wien
c 
c Version 2.1.3 5296d3d2a9bf48c154ab2acb5e44625776d821bf
c g++ (Gentoo 12.3.1_p20230526 p2) 12.3.1 20230526 -Wall -Wextra -O3 -DNDEBUG
c Sat Aug 9 07:26:21 PDT 2025 Linux cedar2.int.cedar.computecanada.ca 5.14.0-362.24.2.el9_3.x86_64 x86_64
c 
c --- [ limit ] --------------------------------------------------------------
c 
c setting time limit to 1600 seconds real time (due to '-t 1600')
c 
c --- [ parsing input ] ------------------------------------------------------
c 
c reading DIMACS file from './data/cnfs//arbitrated_top_n4_w8_d64_e0/arbitrated_top_n4_w8_d64_e0.27.cnf'
c opening file to read './data/cnfs//arbitrated_top_n4_w8_d64_e0/arbitrated_top_n4_w8_d64_e0.27.cnf'
c found 'p cnf 376708 1119833' header
c parsed 1119833 clauses in 0.17 seconds process time
c 
c --- [ options ] ------------------------------------------------------------
c 
c   --compact=false                (different from default 'true')
c   --decompose=false              (different from default 'true')
c   --deduplicate=false            (different from default 'true')
c   --elim=false                   (different from default 'true')
c   --probe=false                  (different from default 'true')
c   --reduce=false                 (different from default 'true')
c   --subsume=false                (different from default 'true')
c   --ternary=false                (different from default 'true')
c   --transred=false               (different from default 'true')
c   --vivify=false                 (different from default 'true')
c 
c --- [ solving ] ------------------------------------------------------------
c 
c time measured in process time since initialization
c 
c  seconds   reductions  redundant  irredundant
c          MB    restarts       trail       variables
c           level   conflicts       glue          remaining
c 
c *  0.17 153  0 0   0    0    0  0% 0 869203 211401 56%
c {  0.22 156  0 0   0    0    0  0% 0 869203 211401 56%
c i  0.28 156 818 0   1  191  184 68% 2 869203 211370 56%
c i  0.29 156 769 0   1  204  195 67% 2 869203 211098 56%
c i  0.29 156 682 0   1  230  214 64% 2 869203 210963 56%
c i  0.29 156 570 0   1  278  257 61% 2 869203 210559 56%
c i  0.29 156 541 0   1  294  271 60% 2 869203 210488 56%
c i  0.29 156 534 0   1  300  274 60% 2 869203 210084 56%
c i  0.29 156 499 0   1  321  294 59% 2 869203 209808 56%
c i  0.29 156 496 0   1  323  295 59% 2 869203 209280 56%
c i  0.29 156 494 0   1  324  295 59% 2 869203 209079 56%
c i  0.29 156 487 0   1  329  298 58% 2 869203 208468 55%
c i  0.29 156 455 0   1  352  318 58% 2 869203 208397 55%
c i  0.29 156 453 0   1  353  318 58% 2 869203 208359 55%
c i  0.29 156 451 0   1  355  319 57% 2 869203 208233 55%
c i  0.29 156 444 0   1  360  323 57% 2 869203 208196 55%
c i  0.29 156 443 0   1  361  323 57% 2 869203 208195 55%
c i  0.29 156 437 0   1  366  326 57% 2 869203 207789 55%
c i  0.31 156 414 0   6  405  355 57% 2 869203 207540 55%
c i  0.32 156 411 0   7  409  358 57% 2 869203 207517 55%
c 
c  seconds    reductions  redundant  irredundant
c          MB     restarts       trail       variables
c            level   conflicts       glue          remaining
c 
c i  0.33 156 409 0   9  415  362 57% 2 869203 207315 55%
c i  0.43 156 308 0  53  592  527 55% 3 869203 206665 55%
c i  0.44 156 307 0  54  596  530 55% 3 869203 206453 55%
c i  0.45 156 279 0  74  663  591 54% 3 869203 206075 55%
c i  0.45 156 277 0  76  668  595 54% 3 869203 206040 55%
c i  0.47 156 263 0  87  711  633 54% 3 869203 205682 55%
c i  0.47 156 262 0  87  712  633 54% 3 869203 205535 55%
c i  0.47 156 262 0  88  713  633 54% 3 869203 205449 55%
c i  0.50 156 247 0 103  768  684 53% 3 869203 205327 55%
c i  0.51 156 227 0 117  840  746 53% 3 869203 204909 54%
c }  0.53 156 194 0 135 1002  900 52% 3 869203 204907 54%
c [  0.53 156  0 0 135 1002  900  0% 0 869203 204907 54%
c O  0.58 156 3070 0 135 1003  901 87% 2 869203 204907 54%
c i  0.64 156 2554 0 135 1571 1419 64% 3 869203 204882 54%
c i  0.66 156 2503 0 135 1720 1548 62% 4 869203 204555 54%
c ]  0.88 156 1301 0 136 3002 2695 55% 8 869203 204420 54%
c {  0.88 156 194 0 136 3002 2695 52% 3 869203 204420 54%
c F  0.88 156 194 0 137 3004 2697 52% 3 869203 204420 54%
c i  0.90 156 180 0 155 3089 2779 52% 3 869203 204321 54%
c i  0.92 156 165 0 167 3211 2891 51% 3 869203 204303 54%
c 
c  seconds    reductions  redundant  irredundant
c          MB     restarts       trail       variables
c            level   conflicts       glue          remaining
c 
c i  0.92 156 165 0 168 3213 2892 51% 3 869203 204295 54%
c i  0.93 156 162 0 176 3249 2925 51% 4 869203 204162 54%
c i  0.95 156 157 0 188 3300 2972 51% 4 869203 204094 54%
c i  1.10 157 110 0 297 4083 3685 50% 4 869203 204002 54%
... skipped 116 lines ...
c 
c  seconds   reductions       redundant   irredundant
c          MB     restarts            trail       variables
c           level      conflicts          glue          remaining
c 
c i 79.70 201 25 0 15092 266947 235607 49% 8 510315 199987 53%
c i 80.00 201 25 0 15126 268524 236619 49% 8 510315 199984 53%
c i 80.29 201 24 0 15131 269800 237348 49% 8 510315 199333 53%
c i 80.58 201 24 0 15191 270108 237647 49% 8 510315 199235 53%
c F 84.75 201 24 0 16147 276048 242785 49% 8 510315 199235 53%
c i 97.78 203 23 0 19139 294028 259084 49% 8 510315 199202 53%
c B 100.26 203 22 0 19544 300050 264284 49% 8 510315 199202 53%
c i 105.12 203 21 0 20368 311009 273269 49% 8 510315 199180 53%
c W 114.24 210 21 0 22416 325054 231340 49% 8 506671 199180 53%
c i 117.54 210 21 0 23204 330161 236001 49% 8 506671 199172 53%
c i 118.20 210 20 0 23319 331627 237348 49% 8 506671 199170 53%
c i 118.87 210 21 0 23447 332738 238405 49% 8 506671 199169 53%
c i 127.72 210 20 0 25575 344412 248682 49% 9 506671 199103 53%
c i 130.66 210 20 0 26197 350007 253060 49% 9 506671 198851 53%
c # 131.04 210 20 0 26251 351056 254050 49% 9 506671 198851 53%
c i 132.66 210 19 0 26549 355311 256773 49% 9 506671 198840 53%
c B 145.64 210 19 0 29483 378057 276768 49% 9 506671 198840 53%
c i 149.24 210 19 0 30479 384860 282787 49% 9 506671 198839 53%
c i 150.82 210 18 0 30794 391421 288436 49% 9 506671 198769 53%
c i 152.51 210 17 0 30800 398140 292653 49% 9 506671 198747 53%
c 
c  seconds    reductions       redundant   irredundant
c           MB     restarts            trail       variables
c            level      conflicts          glue          remaining
c 
c i 154.90 210 17 0 31369 404674 298128 49% 9 506671 198719 53%
c W 155.67 209 17 0 31448 406059 245094 49% 9 505208 198719 53%
c i 161.07 209 16 0 32427 425111 258752 49% 9 505208 198589 53%
c F 166.55 209 16 0 33827 435060 267048 49% 9 505208 198589 53%
c i 168.94 209 16 0 34551 442024 273079 49% 9 505208 198587 53%
c i 170.19 209 16 0 34831 445150 275200 49% 9 505208 198499 53%
c i 171.97 209 15 0 34997 451033 279518 49% 9 505208 198497 53%
c i 172.54 209 15 0 35005 453118 280843 49% 9 505208 198487 53%
c i 174.86 209 15 0 35351 460198 285793 49% 9 505208 198477 53%
c B 176.26 209 15 0 35638 465064 289320 49% 9 505208 198477 53%
c i 178.93 209 14 0 35976 474890 296039 49% 8 505208 198416 53%
c i 179.10 209 14 0 35976 475707 296598 49% 8 505208 198411 53%
c i 179.12 209 14 0 35976 475796 296648 49% 8 505208 198075 53%
c i 179.13 209 14 0 35976 475806 296651 49% 8 505208 195948 52%
c } 179.22 209 14 0 35976 476377 296902 49% 8 505208 195860 52%
c 0 179.22 209 14 0 35976 476377 296902 49% 8 505208 195860 52%
c 
c --- [ result ] -------------------------------------------------------------
c 
s UNSATISFIABLE
c 
c --- [ run-time profiling ] -------------------------------------------------
c 
c process time taken by individual solving procedures
c (percentage relative to process time for solving)
c 
c       179.05  100.00% search
c       140.62   78.53% unstable
c        36.92   20.62% stable
c         1.47    0.82% walk
c         0.17    0.10% parse
c         0.05    0.03% lucky
c         0.00    0.00% simplify
c   =================================
c       179.05   99.90% solve
c 
c last line shows process time for solving
c (percentage relative to total process time)
c 
c --- [ statistics ] ---------------------------------------------------------
c 
c chronological:             76624        16.08 %  of conflicts
c conflicts:                476377      2660.53    per second
c decisions:               1304342      7284.66    per second
c fixed:                    180819        48.00 %  of all variables
c learned:                  469115        98.48 %  per conflict
c learned_lits:           25560566       100.00 %  learned literals
c minimized:                     0         0.00 %  learned literals
c shrunken:                6704173        26.23 %  learned literals
c minishrunken:            6478514        25.35 %  learned literals
c otfs:                       1461         0.31 %  of conflict
c propagations:          831594560         4.64 M  per second
c rephased:                     30     15879.23    interval
c restarts:                  35976        13.24    interval
c stabilizing:                   4        35.68 %  of conflicts
c subsumed:                  56825         4.25 %  of all clauses
c strengthened:               1405         0.10 %  of all clauses
c walked:                        8     59547.12    interval
c 
c seconds are measured in process time for solving
c 
c --- [ resources ] ----------------------------------------------------------
c 
c total process time since initialization:       179.22    seconds
c total real time since initialization:          179.80    seconds
c maximum resident set size of process:          256.55    MB
c 
c --- [ shutting down ] ------------------------------------------------------
c 
c exit 20
